
        $ From http://www.csplib.org/Problems/prob009/data/helmut.pdf
        $ Problem number 207
        $ Sequence length : 25
        language ESSENCE' 1.0
        letting sizemaster be 661
        letting sizes be sequence(5,7,17,18,23,31,36,38,41,64,73,77,83,84,102,106,111,161,175,196,203,210,238,248,262)
        